80 44 1  1 
10 5 1  1 
70 39 1  1 
40 22 1  1 
30 18 1  1 
50 29 1  1 
40 21 1  1 
20 12 1  1 
60 36 1  1 
90 48 1  1 
60 32 1  1 
10 6 1  1 
30 17 1  1 
60 33 1  1 
20 11 1  1 
40 23 1  1 
100 60 1  1 
90 51 1  1 
70 36 1  1 
30 17 1  1 
70 41 1  1 
50 27 1  1 
50 28 1  1 
90 53 1  1 
10 6 1  1 
50 27 1  1 
10 6 1  1 
70 40 1  1 
50 27 1  1 
90 51 1  1 
80 46 1  1 
20 10 1  1 
60 36 1  1 
10 6 1  1 
30 16 1  1 
30 17 1  1 
40 23 1  1 
40 22 1  1 
60 33 1  1 
40 23 1  1 
70 41 1  1 
10 6 1  1 
60 36 1  1 
20 11 1  1 
20 12 1  1 
100 57 1  1 
70 39 1  1 
10 6 1  1 
60 34 1  1 
60 34 1  1 
90 51 1  1 
60 34 1  1 
100 58 1  1 
100 58 1  1 
30 16 1  1 
20 12 1  1 
90 53 1  1 
20 10 1  1 
80 46 1  1 
80 45 1  1 
30 18 1  1 
60 35 1  1 
100 51 1  1 
20 11 1  1 
100 54 1  1 
40 22 1  1 
50 29 1  1 
100 59 1  1 
50 28 1  1 
50 28 1  1 
70 39 1  1 
20 10 1  1 
100 55 1  1 
70 39 1  1 
80 44 1  1 
30 17 1  1 
10 5 1  1 
40 22 1  1 
90 51 1  1 
30 16 1  1 
40 21 1  1 
70 39 1  1 
10 6 1  1 
40 24 1  1 
20 12 1  1 
90 49 1  1 
30 17 1  1 
80 43 1  1 
50 27 1  1 
70 40 1  1 
80 44 1  1 
100 58 1  1 
50 26 1  1 
80 44 1  1 
80 47 1  1 
90 52 1  1 
100 57 1  1 
10 6 1  1 
90 51 1  1 
80 45 1  1 
